(set-logic QF_UF)
(declare-fun A0 () Bool)
(declare-fun A1 () Bool)
(declare-fun A2 () Bool)
(declare-fun A3 () Bool)
(declare-fun A4 () Bool)
(declare-fun A5 () Bool)
(declare-fun A6 () Bool)
(declare-fun A7 () Bool)
(declare-fun A8 () Bool)
(declare-fun A9 () Bool)
(declare-fun A10 () Bool)
(declare-fun A11 () Bool)
(declare-fun A12 () Bool)
(declare-fun A13 () Bool)
(declare-fun A14 () Bool)
(declare-fun A15 () Bool)
(declare-fun A16 () Bool)
(declare-fun A17 () Bool)
(declare-fun A18 () Bool)
(declare-fun A19 () Bool)
(declare-fun A20 () Bool)
(declare-fun A21 () Bool)
(declare-fun A22 () Bool)
(declare-fun A23 () Bool)
(declare-fun A24 () Bool)
(assert (let ((.def_0 (not A9))) (let ((.def_1 (or .def_0 A18))) (let ((.def_2 (not .def_1))) (let ((.def_3 (= A7 A9))) (let ((.def_4 (not .def_3))) (let ((.def_5 (or .def_4 .def_2))) (let ((.def_6 (not .def_5))) (let ((.def_7 (not A7))) (let ((.def_8 (not A14))) (let ((.def_9 (or .def_8 .def_7))) (let ((.def_10 (not .def_9))) (let ((.def_11 (and A23 A15))) (let ((.def_12 (not .def_11))) (let ((.def_13 (or .def_12 .def_10))) (let ((.def_14 (and .def_13 .def_6))) (let ((.def_15 (not A5))) (let ((.def_16 (or .def_15 A12))) (let ((.def_17 (and A19 A12))) (let ((.def_18 (not .def_17))) (let ((.def_19 (and .def_18 .def_16))) (let ((.def_20 (not .def_19))) (let ((.def_21 (= A11 A16))) (let ((.def_22 (not .def_21))) (let ((.def_23 (not A0))) (let ((.def_24 (not A20))) (let ((.def_25 (or .def_24 .def_23))) (let ((.def_26 (not .def_25))) (let ((.def_27 (and .def_26 .def_22))) (let ((.def_28 (or .def_27 .def_20))) (let ((.def_29 (not .def_28))) (let ((.def_30 (and .def_29 .def_14))) (let ((.def_31 (not .def_30))) (let ((.def_32 (not A11))) (let ((.def_33 (and A12 .def_32))) (let ((.def_34 (not .def_33))) (let ((.def_35 (not A17))) (let ((.def_36 (= .def_35 A8))) (let ((.def_37 (not .def_36))) (let ((.def_38 (or .def_37 .def_34))) (let ((.def_39 (not A1))) (let ((.def_40 (and .def_39 A9))) (let ((.def_41 (and .def_23 A7))) (let ((.def_42 (and .def_41 .def_40))) (let ((.def_43 (and .def_42 .def_38))) (let ((.def_44 (not A13))) (let ((.def_45 (and .def_44 A15))) (let ((.def_46 (not A2))) (let ((.def_47 (or A17 .def_46))) (let ((.def_48 (not .def_47))) (let ((.def_49 (or .def_48 .def_45))) (let ((.def_50 (and A2 A16))) (let ((.def_51 (not A22))) (let ((.def_52 (= A16 .def_51))) (let ((.def_53 (and .def_52 .def_50))) (let ((.def_54 (and .def_53 .def_49))) (let ((.def_55 (or .def_54 .def_43))) (let ((.def_56 (or .def_55 .def_31))) (let ((.def_57 (not .def_56))) (let ((.def_58 (not A8))) (let ((.def_59 (or .def_58 A8))) (let ((.def_60 (not A4))) (let ((.def_61 (and A5 .def_60))) (let ((.def_62 (or .def_61 .def_59))) (let ((.def_63 (not .def_62))) (let ((.def_64 (or .def_23 A19))) (let ((.def_65 (not A3))) (let ((.def_66 (or .def_65 .def_39))) (let ((.def_67 (and .def_66 .def_64))) (let ((.def_68 (not .def_67))) (let ((.def_69 (= .def_68 .def_63))) (let ((.def_70 (= A6 .def_24))) (let ((.def_71 (not .def_70))) (let ((.def_72 (not A19))) (let ((.def_73 (and A21 .def_72))) (let ((.def_74 (and .def_73 .def_71))) (let ((.def_75 (not .def_74))) (let ((.def_76 (or .def_7 A18))) (let ((.def_77 (not A23))) (let ((.def_78 (and A4 .def_77))) (let ((.def_79 (or .def_78 .def_76))) (let ((.def_80 (not .def_79))) (let ((.def_81 (or .def_80 .def_75))) (let ((.def_82 (or .def_81 .def_69))) (let ((.def_83 (not A15))) (let ((.def_84 (and .def_83 A14))) (let ((.def_85 (not .def_84))) (let ((.def_86 (or A0 A16))) (let ((.def_87 (not .def_86))) (let ((.def_88 (and .def_87 .def_85))) (let ((.def_89 (not A6))) (let ((.def_90 (and .def_23 .def_89))) (let ((.def_91 (and A23 A23))) (let ((.def_92 (and .def_91 .def_90))) (let ((.def_93 (not .def_92))) (let ((.def_94 (or .def_93 .def_88))) (let ((.def_95 (not .def_94))) (let ((.def_96 (or A8 A2))) (let ((.def_97 (not A16))) (let ((.def_98 (and A1 .def_97))) (let ((.def_99 (and .def_98 .def_96))) (let ((.def_100 (not .def_99))) (let ((.def_101 (or .def_51 .def_65))) (let ((.def_102 (or A22 A16))) (let ((.def_103 (not .def_102))) (let ((.def_104 (or .def_103 .def_101))) (let ((.def_105 (or .def_104 .def_100))) (let ((.def_106 (not .def_105))) (let ((.def_107 (= .def_106 .def_95))) (let ((.def_108 (and .def_107 .def_82))) (let ((.def_109 (not .def_108))) (let ((.def_110 (and .def_109 .def_57))) (let ((.def_111 (not .def_110))) (let ((.def_112 (or .def_89 .def_51))) (let ((.def_113 (or .def_35 A10))) (let ((.def_114 (and .def_113 .def_112))) (let ((.def_115 (not .def_114))) (let ((.def_116 (not A18))) (let ((.def_117 (or .def_116 A23))) (let ((.def_118 (not A24))) (let ((.def_119 (or A4 .def_118))) (let ((.def_120 (not .def_119))) (let ((.def_121 (or .def_120 .def_117))) (let ((.def_122 (not .def_121))) (let ((.def_123 (or .def_122 .def_115))) (let ((.def_124 (not .def_123))) (let ((.def_125 (or A1 A5))) (let ((.def_126 (not .def_125))) (let ((.def_127 (or A19 .def_83))) (let ((.def_128 (or .def_127 .def_126))) (let ((.def_129 (not .def_128))) (let ((.def_130 (not A10))) (let ((.def_131 (or A3 .def_130))) (let ((.def_132 (and .def_7 .def_58))) (let ((.def_133 (or .def_132 .def_131))) (let ((.def_134 (not .def_133))) (let ((.def_135 (or .def_134 .def_129))) (let ((.def_136 (and .def_135 .def_124))) (let ((.def_137 (or .def_118 .def_7))) (let ((.def_138 (or .def_58 A0))) (let ((.def_139 (not .def_138))) (let ((.def_140 (= .def_139 .def_137))) (let ((.def_141 (not .def_140))) (let ((.def_142 (or A10 A23))) (let ((.def_143 (or A2 .def_0))) (let ((.def_144 (not .def_143))) (let ((.def_145 (and .def_144 .def_142))) (let ((.def_146 (or .def_145 .def_141))) (let ((.def_147 (or .def_32 .def_97))) (let ((.def_148 (or .def_97 A0))) (let ((.def_149 (or .def_148 .def_147))) (let ((.def_150 (or A14 .def_32))) (let ((.def_151 (not .def_150))) (let ((.def_152 (or .def_0 A5))) (let ((.def_153 (not .def_152))) (let ((.def_154 (and .def_153 .def_151))) (let ((.def_155 (or .def_154 .def_149))) (let ((.def_156 (not .def_155))) (let ((.def_157 (= .def_156 .def_146))) (let ((.def_158 (not .def_157))) (let ((.def_159 (or .def_158 .def_136))) (let ((.def_160 (and A18 A10))) (let ((.def_161 (and A1 A23))) (let ((.def_162 (= .def_161 .def_160))) (let ((.def_163 (or .def_32 .def_51))) (let ((.def_164 (not .def_163))) (let ((.def_165 (and .def_44 A20))) (let ((.def_166 (= .def_165 .def_164))) (let ((.def_167 (and .def_166 .def_162))) (let ((.def_168 (and .def_116 A6))) (let ((.def_169 (not A21))) (let ((.def_170 (and .def_130 .def_169))) (let ((.def_171 (or .def_170 .def_168))) (let ((.def_172 (and A14 A20))) (let ((.def_173 (and A13 .def_51))) (let ((.def_174 (not .def_173))) (let ((.def_175 (and .def_174 .def_172))) (let ((.def_176 (not .def_175))) (let ((.def_177 (and .def_176 .def_171))) (let ((.def_178 (not .def_177))) (let ((.def_179 (or .def_178 .def_167))) (let ((.def_180 (not .def_179))) (let ((.def_181 (or .def_77 A24))) (let ((.def_182 (not .def_181))) (let ((.def_183 (or .def_72 .def_23))) (let ((.def_184 (not .def_183))) (let ((.def_185 (and .def_184 .def_182))) (let ((.def_186 (and A22 A16))) (let ((.def_187 (and A19 A3))) (let ((.def_188 (not .def_187))) (let ((.def_189 (and .def_188 .def_186))) (let ((.def_190 (not .def_189))) (let ((.def_191 (and .def_190 .def_185))) (let ((.def_192 (not .def_191))) (let ((.def_193 (or .def_23 .def_51))) (let ((.def_194 (or A5 A24))) (let ((.def_195 (not .def_194))) (let ((.def_196 (or .def_195 .def_193))) (let ((.def_197 (not .def_196))) (let ((.def_198 (and A17 A4))) (let ((.def_199 (not .def_198))) (let ((.def_200 (and .def_72 A22))) (let ((.def_201 (or .def_200 .def_199))) (let ((.def_202 (not .def_201))) (let ((.def_203 (and .def_202 .def_197))) (let ((.def_204 (or .def_203 .def_192))) (let ((.def_205 (not .def_204))) (let ((.def_206 (or .def_205 .def_180))) (let ((.def_207 (and .def_206 .def_159))) (let ((.def_208 (not .def_207))) (let ((.def_209 (and .def_208 .def_111))) (let ((.def_210 (not .def_209))) (let ((.def_211 (and A2 .def_60))) (let ((.def_212 (= A3 A6))) (let ((.def_213 (and .def_212 .def_211))) (let ((.def_214 (not .def_213))) (let ((.def_215 (and A11 .def_77))) (let ((.def_216 (not .def_215))) (let ((.def_217 (or A17 A20))) (let ((.def_218 (not .def_217))) (let ((.def_219 (or .def_218 .def_216))) (let ((.def_220 (not .def_219))) (let ((.def_221 (or .def_220 .def_214))) (let ((.def_222 (not .def_221))) (let ((.def_223 (and A13 A12))) (let ((.def_224 (or A15 A7))) (let ((.def_225 (not .def_224))) (let ((.def_226 (or .def_225 .def_223))) (let ((.def_227 (not .def_226))) (let ((.def_228 (or A10 .def_24))) (let ((.def_229 (not .def_228))) (let ((.def_230 (or .def_32 A6))) (let ((.def_231 (and .def_230 .def_229))) (let ((.def_232 (and .def_231 .def_227))) (let ((.def_233 (not .def_232))) (let ((.def_234 (and .def_233 .def_222))) (let ((.def_235 (or A11 .def_46))) (let ((.def_236 (not .def_235))) (let ((.def_237 (or A8 .def_72))) (let ((.def_238 (not .def_237))) (let ((.def_239 (or .def_238 .def_236))) (let ((.def_240 (not .def_239))) (let ((.def_241 (and A1 .def_89))) (let ((.def_242 (or .def_83 A6))) (let ((.def_243 (not .def_242))) (let ((.def_244 (and .def_243 .def_241))) (let ((.def_245 (not .def_244))) (let ((.def_246 (and .def_245 .def_240))) (let ((.def_247 (and A7 .def_116))) (let ((.def_248 (not .def_247))) (let ((.def_249 (or .def_23 A7))) (let ((.def_250 (not .def_249))) (let ((.def_251 (or .def_250 .def_248))) (let ((.def_252 (not .def_251))) (let ((.def_253 (or .def_169 .def_77))) (let ((.def_254 (not .def_253))) (let ((.def_255 (= .def_60 A11))) (let ((.def_256 (not .def_255))) (let ((.def_257 (or .def_256 .def_254))) (let ((.def_258 (or .def_257 .def_252))) (let ((.def_259 (not .def_258))) (let ((.def_260 (and .def_259 .def_246))) (let ((.def_261 (not .def_260))) (let ((.def_262 (and .def_261 .def_234))) (let ((.def_263 (and .def_65 .def_8))) (let ((.def_264 (not .def_263))) (let ((.def_265 (and .def_23 .def_51))) (let ((.def_266 (not .def_265))) (let ((.def_267 (and .def_266 .def_264))) (let ((.def_268 (not .def_267))) (let ((.def_269 (and A23 .def_39))) (let ((.def_270 (or A7 .def_169))) (let ((.def_271 (not .def_270))) (let ((.def_272 (or .def_271 .def_269))) (let ((.def_273 (not .def_272))) (let ((.def_274 (and .def_273 .def_268))) (let ((.def_275 (not .def_274))) (let ((.def_276 (or A12 A13))) (let ((.def_277 (not .def_276))) (let ((.def_278 (or A3 A3))) (let ((.def_279 (and .def_278 .def_277))) (let ((.def_280 (not A12))) (let ((.def_281 (or .def_280 A3))) (let ((.def_282 (and .def_60 .def_58))) (let ((.def_283 (not .def_282))) (let ((.def_284 (or .def_283 .def_281))) (let ((.def_285 (not .def_284))) (let ((.def_286 (and .def_285 .def_279))) (let ((.def_287 (or .def_286 .def_275))) (let ((.def_288 (not .def_287))) (let ((.def_289 (and A4 A5))) (let ((.def_290 (or A6 A7))) (let ((.def_291 (not .def_290))) (let ((.def_292 (or .def_291 .def_289))) (let ((.def_293 (not .def_292))) (let ((.def_294 (and .def_39 A1))) (let ((.def_295 (and .def_250 .def_294))) (let ((.def_296 (and .def_295 .def_293))) (let ((.def_297 (or A3 .def_46))) (let ((.def_298 (not .def_297))) (let ((.def_299 (and A19 A15))) (let ((.def_300 (or .def_299 .def_298))) (let ((.def_301 (not .def_300))) (let ((.def_302 (and .def_60 .def_65))) (let ((.def_303 (not .def_302))) (let ((.def_304 (or .def_65 .def_83))) (let ((.def_305 (not .def_304))) (let ((.def_306 (or .def_305 .def_303))) (let ((.def_307 (and .def_306 .def_301))) (let ((.def_308 (or .def_307 .def_296))) (let ((.def_309 (or .def_308 .def_288))) (let ((.def_310 (not .def_309))) (let ((.def_311 (or .def_310 .def_262))) (let ((.def_312 (and .def_280 .def_35))) (let ((.def_313 (or .def_116 .def_72))) (let ((.def_314 (and .def_313 .def_312))) (let ((.def_315 (not .def_314))) (let ((.def_316 (and A2 .def_24))) (let ((.def_317 (not .def_316))) (let ((.def_318 (or A11 .def_15))) (let ((.def_319 (not .def_318))) (let ((.def_320 (and .def_319 .def_317))) (let ((.def_321 (or .def_320 .def_315))) (let ((.def_322 (and A15 .def_72))) (let ((.def_323 (and A9 .def_77))) (let ((.def_324 (= .def_323 .def_322))) (let ((.def_325 (not .def_324))) (let ((.def_326 (and A23 .def_23))) (let ((.def_327 (or .def_44 .def_58))) (let ((.def_328 (and .def_327 .def_326))) (let ((.def_329 (not .def_328))) (let ((.def_330 (= .def_329 .def_325))) (let ((.def_331 (not .def_330))) (let ((.def_332 (and .def_331 .def_321))) (let ((.def_333 (and A5 .def_8))) (let ((.def_334 (or A4 .def_72))) (let ((.def_335 (or .def_334 .def_333))) (let ((.def_336 (and .def_15 A5))) (let ((.def_337 (not .def_336))) (let ((.def_338 (or .def_83 .def_35))) (let ((.def_339 (not .def_338))) (let ((.def_340 (and .def_339 .def_337))) (let ((.def_341 (not .def_340))) (let ((.def_342 (and .def_341 .def_335))) (let ((.def_343 (not .def_342))) (let ((.def_344 (or A12 A11))) (let ((.def_345 (and A24 A13))) (let ((.def_346 (and .def_345 .def_344))) (let ((.def_347 (not .def_346))) (let ((.def_348 (and .def_83 .def_46))) (let ((.def_349 (not .def_348))) (let ((.def_350 (or .def_97 .def_51))) (let ((.def_351 (= .def_350 .def_349))) (let ((.def_352 (not .def_351))) (let ((.def_353 (and .def_352 .def_347))) (let ((.def_354 (not .def_353))) (let ((.def_355 (and .def_354 .def_343))) (let ((.def_356 (or .def_355 .def_332))) (let ((.def_357 (not .def_356))) (let ((.def_358 (or .def_280 .def_169))) (let ((.def_359 (not .def_358))) (let ((.def_360 (and A20 .def_89))) (let ((.def_361 (or .def_360 .def_359))) (let ((.def_362 (not .def_361))) (let ((.def_363 (= A20 .def_46))) (let ((.def_364 (or A18 A19))) (let ((.def_365 (not .def_364))) (let ((.def_366 (= .def_365 .def_363))) (let ((.def_367 (and .def_366 .def_362))) (let ((.def_368 (or A23 .def_65))) (let ((.def_369 (and A15 .def_116))) (let ((.def_370 (not .def_369))) (let ((.def_371 (= .def_370 .def_368))) (let ((.def_372 (not .def_371))) (let ((.def_373 (or .def_23 .def_0))) (let ((.def_374 (or .def_72 A24))) (let ((.def_375 (or .def_374 .def_373))) (let ((.def_376 (not .def_375))) (let ((.def_377 (or .def_376 .def_372))) (let ((.def_378 (not .def_377))) (let ((.def_379 (and .def_378 .def_367))) (let ((.def_380 (and .def_118 A5))) (let ((.def_381 (or .def_51 A0))) (let ((.def_382 (not .def_381))) (let ((.def_383 (or .def_382 .def_380))) (let ((.def_384 (and .def_72 .def_169))) (let ((.def_385 (and A9 .def_58))) (let ((.def_386 (and .def_385 .def_384))) (let ((.def_387 (and .def_386 .def_383))) (let ((.def_388 (not .def_387))) (let ((.def_389 (= A20 .def_97))) (let ((.def_390 (not .def_389))) (let ((.def_391 (= .def_89 .def_0))) (let ((.def_392 (and .def_391 .def_390))) (let ((.def_393 (and .def_58 .def_130))) (let ((.def_394 (not .def_393))) (let ((.def_395 (or .def_60 .def_83))) (let ((.def_396 (or .def_395 .def_394))) (let ((.def_397 (or .def_396 .def_392))) (let ((.def_398 (or .def_397 .def_388))) (let ((.def_399 (not .def_398))) (let ((.def_400 (and .def_399 .def_379))) (let ((.def_401 (and .def_400 .def_357))) (let ((.def_402 (or .def_401 .def_311))) (let ((.def_403 (not .def_402))) (let ((.def_404 (and .def_403 .def_210))) .def_404))))))))))))))))))))))))))))))))))))))))))))))))))))))))))))))))))))))))))))))))))))))))))))))))))))))))))))))))))))))))))))))))))))))))))))))))))))))))))))))))))))))))))))))))))))))))))))))))))))))))))))))))))))))))))))))))))))))))))))))))))))))))))))))))))))))))))))))))))))))))))))))))))))))))))))))))))))))))))))))))))))))))))))))))))))))))))))))))))))))))))))))))))))))))))))))))))))))))))))))))))))))
(check-sat)
